p cnf 270 2846
1 2 3 4 5 6 7 8 9 0
10 11 12 13 14 15 16 17 18 0
19 20 21 22 23 24 25 26 27 0
28 29 30 31 32 33 34 35 36 0
37 38 39 40 41 42 43 44 45 0
46 47 48 49 50 51 52 53 54 0
55 56 57 58 59 60 61 62 63 0
64 65 66 67 68 69 70 71 72 0
73 74 75 76 77 78 79 80 81 0
82 83 84 85 86 87 88 89 90 0
91 92 93 94 95 96 97 98 99 0
100 101 102 103 104 105 106 107 108 0
109 110 111 112 113 114 115 116 117 0
118 119 120 121 122 123 124 125 126 0
127 128 129 130 131 132 133 134 135 0
136 137 138 139 140 141 142 143 144 0
145 146 147 148 149 150 151 152 153 0
154 155 156 157 158 159 160 161 162 0
163 164 165 166 167 168 169 170 171 0
172 173 174 175 176 177 178 179 180 0
181 182 183 184 185 186 187 188 189 0
190 191 192 193 194 195 196 197 198 0
199 200 201 202 203 204 205 206 207 0
208 209 210 211 212 213 214 215 216 0
217 218 219 220 221 222 223 224 225 0
226 227 228 229 230 231 232 233 234 0
235 236 237 238 239 240 241 242 243 0
244 245 246 247 248 249 250 251 252 0
253 254 255 256 257 258 259 260 261 0
262 263 264 265 266 267 268 269 270 0
-1 -2 0
-1 -3 0
-1 -4 0
-1 -5 0
-1 -6 0
-1 -7 0
-1 -8 0
-1 -9 0
-2 -3 0
-2 -4 0
-2 -5 0
-2 -6 0
-2 -7 0
-2 -8 0
-2 -9 0
-3 -4 0
-3 -5 0
-3 -6 0
-3 -7 0
-3 -8 0
-3 -9 0
-4 -5 0
-4 -6 0
-4 -7 0
-4 -8 0
-4 -9 0
-5 -6 0
-5 -7 0
-5 -8 0
-5 -9 0
-6 -7 0
-6 -8 0
-6 -9 0
-7 -8 0
-7 -9 0
-8 -9 0
-10 -11 0
-10 -12 0
-10 -13 0
-10 -14 0
-10 -15 0
-10 -16 0
-10 -17 0
-10 -18 0
-11 -12 0
-11 -13 0
-11 -14 0
-11 -15 0
-11 -16 0
-11 -17 0
-11 -18 0
-12 -13 0
-12 -14 0
-12 -15 0
-12 -16 0
-12 -17 0
-12 -18 0
-13 -14 0
-13 -15 0
-13 -16 0
-13 -17 0
-13 -18 0
-14 -15 0
-14 -16 0
-14 -17 0
-14 -18 0
-15 -16 0
-15 -17 0
-15 -18 0
-16 -17 0
-16 -18 0
-17 -18 0
-19 -20 0
-19 -21 0
-19 -22 0
-19 -23 0
-19 -24 0
-19 -25 0
-19 -26 0
-19 -27 0
-20 -21 0
-20 -22 0
-20 -23 0
-20 -24 0
-20 -25 0
-20 -26 0
-20 -27 0
-21 -22 0
-21 -23 0
-21 -24 0
-21 -25 0
-21 -26 0
-21 -27 0
-22 -23 0
-22 -24 0
-22 -25 0
-22 -26 0
-22 -27 0
-23 -24 0
-23 -25 0
-23 -26 0
-23 -27 0
-24 -25 0
-24 -26 0
-24 -27 0
-25 -26 0
-25 -27 0
-26 -27 0
-28 -29 0
-28 -30 0
-28 -31 0
-28 -32 0
-28 -33 0
-28 -34 0
-28 -35 0
-28 -36 0
-29 -30 0
-29 -31 0
-29 -32 0
-29 -33 0
-29 -34 0
-29 -35 0
-29 -36 0
-30 -31 0
-30 -32 0
-30 -33 0
-30 -34 0
-30 -35 0
-30 -36 0
-31 -32 0
-31 -33 0
-31 -34 0
-31 -35 0
-31 -36 0
-32 -33 0
-32 -34 0
-32 -35 0
-32 -36 0
-33 -34 0
-33 -35 0
-33 -36 0
-34 -35 0
-34 -36 0
-35 -36 0
-37 -38 0
-37 -39 0
-37 -40 0
-37 -41 0
-37 -42 0
-37 -43 0
-37 -44 0
-37 -45 0
-38 -39 0
-38 -40 0
-38 -41 0
-38 -42 0
-38 -43 0
-38 -44 0
-38 -45 0
-39 -40 0
-39 -41 0
-39 -42 0
-39 -43 0
-39 -44 0
-39 -45 0
-40 -41 0
-40 -42 0
-40 -43 0
-40 -44 0
-40 -45 0
-41 -42 0
-41 -43 0
-41 -44 0
-41 -45 0
-42 -43 0
-42 -44 0
-42 -45 0
-43 -44 0
-43 -45 0
-44 -45 0
-46 -47 0
-46 -48 0
-46 -49 0
-46 -50 0
-46 -51 0
-46 -52 0
-46 -53 0
-46 -54 0
-47 -48 0
-47 -49 0
-47 -50 0
-47 -51 0
-47 -52 0
-47 -53 0
-47 -54 0
-48 -49 0
-48 -50 0
-48 -51 0
-48 -52 0
-48 -53 0
-48 -54 0
-49 -50 0
-49 -51 0
-49 -52 0
-49 -53 0
-49 -54 0
-50 -51 0
-50 -52 0
-50 -53 0
-50 -54 0
-51 -52 0
-51 -53 0
-51 -54 0
-52 -53 0
-52 -54 0
-53 -54 0
-55 -56 0
-55 -57 0
-55 -58 0
-55 -59 0
-55 -60 0
-55 -61 0
-55 -62 0
-55 -63 0
-56 -57 0
-56 -58 0
-56 -59 0
-56 -60 0
-56 -61 0
-56 -62 0
-56 -63 0
-57 -58 0
-57 -59 0
-57 -60 0
-57 -61 0
-57 -62 0
-57 -63 0
-58 -59 0
-58 -60 0
-58 -61 0
-58 -62 0
-58 -63 0
-59 -60 0
-59 -61 0
-59 -62 0
-59 -63 0
-60 -61 0
-60 -62 0
-60 -63 0
-61 -62 0
-61 -63 0
-62 -63 0
-64 -65 0
-64 -66 0
-64 -67 0
-64 -68 0
-64 -69 0
-64 -70 0
-64 -71 0
-64 -72 0
-65 -66 0
-65 -67 0
-65 -68 0
-65 -69 0
-65 -70 0
-65 -71 0
-65 -72 0
-66 -67 0
-66 -68 0
-66 -69 0
-66 -70 0
-66 -71 0
-66 -72 0
-67 -68 0
-67 -69 0
-67 -70 0
-67 -71 0
-67 -72 0
-68 -69 0
-68 -70 0
-68 -71 0
-68 -72 0
-69 -70 0
-69 -71 0
-69 -72 0
-70 -71 0
-70 -72 0
-71 -72 0
-73 -74 0
-73 -75 0
-73 -76 0
-73 -77 0
-73 -78 0
-73 -79 0
-73 -80 0
-73 -81 0
-74 -75 0
-74 -76 0
-74 -77 0
-74 -78 0
-74 -79 0
-74 -80 0
-74 -81 0
-75 -76 0
-75 -77 0
-75 -78 0
-75 -79 0
-75 -80 0
-75 -81 0
-76 -77 0
-76 -78 0
-76 -79 0
-76 -80 0
-76 -81 0
-77 -78 0
-77 -79 0
-77 -80 0
-77 -81 0
-78 -79 0
-78 -80 0
-78 -81 0
-79 -80 0
-79 -81 0
-80 -81 0
-82 -83 0
-82 -84 0
-82 -85 0
-82 -86 0
-82 -87 0
-82 -88 0
-82 -89 0
-82 -90 0
-83 -84 0
-83 -85 0
-83 -86 0
-83 -87 0
-83 -88 0
-83 -89 0
-83 -90 0
-84 -85 0
-84 -86 0
-84 -87 0
-84 -88 0
-84 -89 0
-84 -90 0
-85 -86 0
-85 -87 0
-85 -88 0
-85 -89 0
-85 -90 0
-86 -87 0
-86 -88 0
-86 -89 0
-86 -90 0
-87 -88 0
-87 -89 0
-87 -90 0
-88 -89 0
-88 -90 0
-89 -90 0
-91 -92 0
-91 -93 0
-91 -94 0
-91 -95 0
-91 -96 0
-91 -97 0
-91 -98 0
-91 -99 0
-92 -93 0
-92 -94 0
-92 -95 0
-92 -96 0
-92 -97 0
-92 -98 0
-92 -99 0
-93 -94 0
-93 -95 0
-93 -96 0
-93 -97 0
-93 -98 0
-93 -99 0
-94 -95 0
-94 -96 0
-94 -97 0
-94 -98 0
-94 -99 0
-95 -96 0
-95 -97 0
-95 -98 0
-95 -99 0
-96 -97 0
-96 -98 0
-96 -99 0
-97 -98 0
-97 -99 0
-98 -99 0
-100 -101 0
-100 -102 0
-100 -103 0
-100 -104 0
-100 -105 0
-100 -106 0
-100 -107 0
-100 -108 0
-101 -102 0
-101 -103 0
-101 -104 0
-101 -105 0
-101 -106 0
-101 -107 0
-101 -108 0
-102 -103 0
-102 -104 0
-102 -105 0
-102 -106 0
-102 -107 0
-102 -108 0
-103 -104 0
-103 -105 0
-103 -106 0
-103 -107 0
-103 -108 0
-104 -105 0
-104 -106 0
-104 -107 0
-104 -108 0
-105 -106 0
-105 -107 0
-105 -108 0
-106 -107 0
-106 -108 0
-107 -108 0
-109 -110 0
-109 -111 0
-109 -112 0
-109 -113 0
-109 -114 0
-109 -115 0
-109 -116 0
-109 -117 0
-110 -111 0
-110 -112 0
-110 -113 0
-110 -114 0
-110 -115 0
-110 -116 0
-110 -117 0
-111 -112 0
-111 -113 0
-111 -114 0
-111 -115 0
-111 -116 0
-111 -117 0
-112 -113 0
-112 -114 0
-112 -115 0
-112 -116 0
-112 -117 0
-113 -114 0
-113 -115 0
-113 -116 0
-113 -117 0
-114 -115 0
-114 -116 0
-114 -117 0
-115 -116 0
-115 -117 0
-116 -117 0
-118 -119 0
-118 -120 0
-118 -121 0
-118 -122 0
-118 -123 0
-118 -124 0
-118 -125 0
-118 -126 0
-119 -120 0
-119 -121 0
-119 -122 0
-119 -123 0
-119 -124 0
-119 -125 0
-119 -126 0
-120 -121 0
-120 -122 0
-120 -123 0
-120 -124 0
-120 -125 0
-120 -126 0
-121 -122 0
-121 -123 0
-121 -124 0
-121 -125 0
-121 -126 0
-122 -123 0
-122 -124 0
-122 -125 0
-122 -126 0
-123 -124 0
-123 -125 0
-123 -126 0
-124 -125 0
-124 -126 0
-125 -126 0
-127 -128 0
-127 -129 0
-127 -130 0
-127 -131 0
-127 -132 0
-127 -133 0
-127 -134 0
-127 -135 0
-128 -129 0
-128 -130 0
-128 -131 0
-128 -132 0
-128 -133 0
-128 -134 0
-128 -135 0
-129 -130 0
-129 -131 0
-129 -132 0
-129 -133 0
-129 -134 0
-129 -135 0
-130 -131 0
-130 -132 0
-130 -133 0
-130 -134 0
-130 -135 0
-131 -132 0
-131 -133 0
-131 -134 0
-131 -135 0
-132 -133 0
-132 -134 0
-132 -135 0
-133 -134 0
-133 -135 0
-134 -135 0
-136 -137 0
-136 -138 0
-136 -139 0
-136 -140 0
-136 -141 0
-136 -142 0
-136 -143 0
-136 -144 0
-137 -138 0
-137 -139 0
-137 -140 0
-137 -141 0
-137 -142 0
-137 -143 0
-137 -144 0
-138 -139 0
-138 -140 0
-138 -141 0
-138 -142 0
-138 -143 0
-138 -144 0
-139 -140 0
-139 -141 0
-139 -142 0
-139 -143 0
-139 -144 0
-140 -141 0
-140 -142 0
-140 -143 0
-140 -144 0
-141 -142 0
-141 -143 0
-141 -144 0
-142 -143 0
-142 -144 0
-143 -144 0
-145 -146 0
-145 -147 0
-145 -148 0
-145 -149 0
-145 -150 0
-145 -151 0
-145 -152 0
-145 -153 0
-146 -147 0
-146 -148 0
-146 -149 0
-146 -150 0
-146 -151 0
-146 -152 0
-146 -153 0
-147 -148 0
-147 -149 0
-147 -150 0
-147 -151 0
-147 -152 0
-147 -153 0
-148 -149 0
-148 -150 0
-148 -151 0
-148 -152 0
-148 -153 0
-149 -150 0
-149 -151 0
-149 -152 0
-149 -153 0
-150 -151 0
-150 -152 0
-150 -153 0
-151 -152 0
-151 -153 0
-152 -153 0
-154 -155 0
-154 -156 0
-154 -157 0
-154 -158 0
-154 -159 0
-154 -160 0
-154 -161 0
-154 -162 0
-155 -156 0
-155 -157 0
-155 -158 0
-155 -159 0
-155 -160 0
-155 -161 0
-155 -162 0
-156 -157 0
-156 -158 0
-156 -159 0
-156 -160 0
-156 -161 0
-156 -162 0
-157 -158 0
-157 -159 0
-157 -160 0
-157 -161 0
-157 -162 0
-158 -159 0
-158 -160 0
-158 -161 0
-158 -162 0
-159 -160 0
-159 -161 0
-159 -162 0
-160 -161 0
-160 -162 0
-161 -162 0
-163 -164 0
-163 -165 0
-163 -166 0
-163 -167 0
-163 -168 0
-163 -169 0
-163 -170 0
-163 -171 0
-164 -165 0
-164 -166 0
-164 -167 0
-164 -168 0
-164 -169 0
-164 -170 0
-164 -171 0
-165 -166 0
-165 -167 0
-165 -168 0
-165 -169 0
-165 -170 0
-165 -171 0
-166 -167 0
-166 -168 0
-166 -169 0
-166 -170 0
-166 -171 0
-167 -168 0
-167 -169 0
-167 -170 0
-167 -171 0
-168 -169 0
-168 -170 0
-168 -171 0
-169 -170 0
-169 -171 0
-170 -171 0
-172 -173 0
-172 -174 0
-172 -175 0
-172 -176 0
-172 -177 0
-172 -178 0
-172 -179 0
-172 -180 0
-173 -174 0
-173 -175 0
-173 -176 0
-173 -177 0
-173 -178 0
-173 -179 0
-173 -180 0
-174 -175 0
-174 -176 0
-174 -177 0
-174 -178 0
-174 -179 0
-174 -180 0
-175 -176 0
-175 -177 0
-175 -178 0
-175 -179 0
-175 -180 0
-176 -177 0
-176 -178 0
-176 -179 0
-176 -180 0
-177 -178 0
-177 -179 0
-177 -180 0
-178 -179 0
-178 -180 0
-179 -180 0
-181 -182 0
-181 -183 0
-181 -184 0
-181 -185 0
-181 -186 0
-181 -187 0
-181 -188 0
-181 -189 0
-182 -183 0
-182 -184 0
-182 -185 0
-182 -186 0
-182 -187 0
-182 -188 0
-182 -189 0
-183 -184 0
-183 -185 0
-183 -186 0
-183 -187 0
-183 -188 0
-183 -189 0
-184 -185 0
-184 -186 0
-184 -187 0
-184 -188 0
-184 -189 0
-185 -186 0
-185 -187 0
-185 -188 0
-185 -189 0
-186 -187 0
-186 -188 0
-186 -189 0
-187 -188 0
-187 -189 0
-188 -189 0
-190 -191 0
-190 -192 0
-190 -193 0
-190 -194 0
-190 -195 0
-190 -196 0
-190 -197 0
-190 -198 0
-191 -192 0
-191 -193 0
-191 -194 0
-191 -195 0
-191 -196 0
-191 -197 0
-191 -198 0
-192 -193 0
-192 -194 0
-192 -195 0
-192 -196 0
-192 -197 0
-192 -198 0
-193 -194 0
-193 -195 0
-193 -196 0
-193 -197 0
-193 -198 0
-194 -195 0
-194 -196 0
-194 -197 0
-194 -198 0
-195 -196 0
-195 -197 0
-195 -198 0
-196 -197 0
-196 -198 0
-197 -198 0
-199 -200 0
-199 -201 0
-199 -202 0
-199 -203 0
-199 -204 0
-199 -205 0
-199 -206 0
-199 -207 0
-200 -201 0
-200 -202 0
-200 -203 0
-200 -204 0
-200 -205 0
-200 -206 0
-200 -207 0
-201 -202 0
-201 -203 0
-201 -204 0
-201 -205 0
-201 -206 0
-201 -207 0
-202 -203 0
-202 -204 0
-202 -205 0
-202 -206 0
-202 -207 0
-203 -204 0
-203 -205 0
-203 -206 0
-203 -207 0
-204 -205 0
-204 -206 0
-204 -207 0
-205 -206 0
-205 -207 0
-206 -207 0
-208 -209 0
-208 -210 0
-208 -211 0
-208 -212 0
-208 -213 0
-208 -214 0
-208 -215 0
-208 -216 0
-209 -210 0
-209 -211 0
-209 -212 0
-209 -213 0
-209 -214 0
-209 -215 0
-209 -216 0
-210 -211 0
-210 -212 0
-210 -213 0
-210 -214 0
-210 -215 0
-210 -216 0
-211 -212 0
-211 -213 0
-211 -214 0
-211 -215 0
-211 -216 0
-212 -213 0
-212 -214 0
-212 -215 0
-212 -216 0
-213 -214 0
-213 -215 0
-213 -216 0
-214 -215 0
-214 -216 0
-215 -216 0
-217 -218 0
-217 -219 0
-217 -220 0
-217 -221 0
-217 -222 0
-217 -223 0
-217 -224 0
-217 -225 0
-218 -219 0
-218 -220 0
-218 -221 0
-218 -222 0
-218 -223 0
-218 -224 0
-218 -225 0
-219 -220 0
-219 -221 0
-219 -222 0
-219 -223 0
-219 -224 0
-219 -225 0
-220 -221 0
-220 -222 0
-220 -223 0
-220 -224 0
-220 -225 0
-221 -222 0
-221 -223 0
-221 -224 0
-221 -225 0
-222 -223 0
-222 -224 0
-222 -225 0
-223 -224 0
-223 -225 0
-224 -225 0
-226 -227 0
-226 -228 0
-226 -229 0
-226 -230 0
-226 -231 0
-226 -232 0
-226 -233 0
-226 -234 0
-227 -228 0
-227 -229 0
-227 -230 0
-227 -231 0
-227 -232 0
-227 -233 0
-227 -234 0
-228 -229 0
-228 -230 0
-228 -231 0
-228 -232 0
-228 -233 0
-228 -234 0
-229 -230 0
-229 -231 0
-229 -232 0
-229 -233 0
-229 -234 0
-230 -231 0
-230 -232 0
-230 -233 0
-230 -234 0
-231 -232 0
-231 -233 0
-231 -234 0
-232 -233 0
-232 -234 0
-233 -234 0
-235 -236 0
-235 -237 0
-235 -238 0
-235 -239 0
-235 -240 0
-235 -241 0
-235 -242 0
-235 -243 0
-236 -237 0
-236 -238 0
-236 -239 0
-236 -240 0
-236 -241 0
-236 -242 0
-236 -243 0
-237 -238 0
-237 -239 0
-237 -240 0
-237 -241 0
-237 -242 0
-237 -243 0
-238 -239 0
-238 -240 0
-238 -241 0
-238 -242 0
-238 -243 0
-239 -240 0
-239 -241 0
-239 -242 0
-239 -243 0
-240 -241 0
-240 -242 0
-240 -243 0
-241 -242 0
-241 -243 0
-242 -243 0
-244 -245 0
-244 -246 0
-244 -247 0
-244 -248 0
-244 -249 0
-244 -250 0
-244 -251 0
-244 -252 0
-245 -246 0
-245 -247 0
-245 -248 0
-245 -249 0
-245 -250 0
-245 -251 0
-245 -252 0
-246 -247 0
-246 -248 0
-246 -249 0
-246 -250 0
-246 -251 0
-246 -252 0
-247 -248 0
-247 -249 0
-247 -250 0
-247 -251 0
-247 -252 0
-248 -249 0
-248 -250 0
-248 -251 0
-248 -252 0
-249 -250 0
-249 -251 0
-249 -252 0
-250 -251 0
-250 -252 0
-251 -252 0
-253 -254 0
-253 -255 0
-253 -256 0
-253 -257 0
-253 -258 0
-253 -259 0
-253 -260 0
-253 -261 0
-254 -255 0
-254 -256 0
-254 -257 0
-254 -258 0
-254 -259 0
-254 -260 0
-254 -261 0
-255 -256 0
-255 -257 0
-255 -258 0
-255 -259 0
-255 -260 0
-255 -261 0
-256 -257 0
-256 -258 0
-256 -259 0
-256 -260 0
-256 -261 0
-257 -258 0
-257 -259 0
-257 -260 0
-257 -261 0
-258 -259 0
-258 -260 0
-258 -261 0
-259 -260 0
-259 -261 0
-260 -261 0
-262 -263 0
-262 -264 0
-262 -265 0
-262 -266 0
-262 -267 0
-262 -268 0
-262 -269 0
-262 -270 0
-263 -264 0
-263 -265 0
-263 -266 0
-263 -267 0
-263 -268 0
-263 -269 0
-263 -270 0
-264 -265 0
-264 -266 0
-264 -267 0
-264 -268 0
-264 -269 0
-264 -270 0
-265 -266 0
-265 -267 0
-265 -268 0
-265 -269 0
-265 -270 0
-266 -267 0
-266 -268 0
-266 -269 0
-266 -270 0
-267 -268 0
-267 -269 0
-267 -270 0
-268 -269 0
-268 -270 0
-269 -270 0
-2 -27 0
-7 -20 0
-5 -21 0
-4 -23 0
-4 -25 0
-4 -20 0
-3 -22 0
-3 -23 0
-1 -39 0
-7 -37 0
-3 -37 0
-9 -38 0
-2 -37 0
-1 -37 0
-8 -44 0
-1 -41 0
-8 -50 0
-3 -48 0
-3 -47 0
-4 -52 0
-4 -47 0
-1 -50 0
-3 -46 0
-7 -48 0
-9 -70 0
-1 -65 0
-9 -66 0
-8 -72 0
-1 -72 0
-8 -67 0
-6 -70 0
-3 -64 0
-8 -78 0
-9 -75 0
-2 -81 0
-9 -79 0
-3 -75 0
-2 -80 0
-3 -80 0
-8 -73 0
-7 -131 0
-8 -130 0
-7 -127 0
-5 -132 0
-3 -132 0
-5 -134 0
-1 -129 0
-5 -133 0
-6 -153 0
-7 -145 0
-3 -149 0
-4 -152 0
-6 -150 0
-4 -148 0
-9 -148 0
-9 -146 0
-5 -163 0
-1 -165 0
-8 -164 0
-7 -166 0
-6 -171 0
-3 -170 0
-3 -166 0
-6 -165 0
-4 -178 0
-9 -173 0
-2 -172 0
-5 -173 0
-5 -179 0
-2 -173 0
-8 -174 0
-1 -177 0
-4 -181 0
-1 -182 0
-3 -188 0
-9 -185 0
-8 -183 0
-7 -183 0
-6 -187 0
-1 -189 0
-3 -229 0
-7 -234 0
-4 -231 0
-6 -227 0
-1 -226 0
-5 -228 0
-7 -231 0
-5 -232 0
-7 -238 0
-3 -238 0
-5 -239 0
-7 -235 0
-9 -242 0
-7 -237 0
-9 -235 0
-4 -241 0
-8 -261 0
-5 -258 0
-9 -259 0
-5 -255 0
-8 -257 0
-3 -254 0
-5 -254 0
-1 -257 0
-1 -263 0
-3 -262 0
-5 -269 0
-3 -265 0
-4 -268 0
-6 -267 0
-3 -264 0
-2 -267 0
-17 -33 0
-16 -33 0
-14 -31 0
-16 -34 0
-17 -36 0
-16 -31 0
-15 -33 0
-10 -36 0
-11 -39 0
-11 -38 0
-18 -43 0
-12 -37 0
-18 -45 0
-17 -41 0
-11 -40 0
-12 -45 0
-16 -53 0
-11 -48 0
-11 -50 0
-15 -46 0
-17 -46 0
-17 -50 0
-15 -50 0
-14 -48 0
-12 -112 0
-13 -112 0
-11 -112 0
-17 -114 0
-18 -109 0
-14 -114 0
-18 -114 0
-12 -109 0
-14 -147 0
-18 -149 0
-13 -153 0
-11 -149 0
-17 -146 0
-10 -151 0
-16 -146 0
-15 -150 0
-11 -154 0
-14 -158 0
-15 -156 0
-17 -162 0
-12 -162 0
-17 -155 0
-11 -156 0
-18 -159 0
-14 -169 0
-17 -168 0
-15 -169 0
-16 -165 0
-15 -170 0
-18 -169 0
-12 -168 0
-12 -169 0
-13 -183 0
-18 -182 0
-10 -189 0
-16 -186 0
-18 -183 0
-14 -182 0
-10 -181 0
-16 -189 0
-15 -204 0
-10 -206 0
-11 -202 0
-18 -199 0
-13 -206 0
-12 -200 0
-11 -207 0
-11 -199 0
-10 -238 0
-13 -243 0
-15 -243 0
-13 -242 0
-15 -236 0
-17 -239 0
-17 -235 0
-17 -241 0
-14 -249 0
-17 -248 0
-12 -252 0
-12 -251 0
-18 -244 0
-10 -251 0
-11 -246 0
-11 -245 0
-15 -258 0
-16 -257 0
-10 -261 0
-16 -258 0
-11 -256 0
-14 -261 0
-10 -256 0
-17 -258 0
-24 -31 0
-20 -30 0
-23 -33 0
-26 -28 0
-23 -32 0
-19 -32 0
-25 -32 0
-22 -34 0
-19 -54 0
-19 -51 0
-24 -53 0
-21 -51 0
-20 -54 0
-21 -50 0
-24 -54 0
-24 -49 0
-19 -56 0
-21 -58 0
-20 -62 0
-27 -60 0
-22 -58 0
-21 -59 0
-25 -60 0
-24 -62 0
-22 -113 0
-25 -109 0
-22 -117 0
-24 -110 0
-22 -112 0
-26 -116 0
-24 -114 0
-22 -115 0
-27 -130 0
-22 -134 0
-27 -129 0
-23 -132 0
-24 -128 0
-26 -128 0
-21 -132 0
-19 -128 0
-26 -137 0
-26 -138 0
-24 -143 0
-22 -143 0
-23 -138 0
-19 -139 0
-23 -136 0
-24 -137 0
-24 -152 0
-20 -149 0
-22 -150 0
-24 -150 0
-22 -145 0
-23 -150 0
-22 -153 0
-21 -146 0
-19 -160 0
-21 -162 0
-27 -162 0
-26 -162 0
-19 -162 0
-27 -161 0
-21 -158 0
-24 -156 0
-20 -191 0
-23 -195 0
-27 -198 0
-23 -194 0
-23 -197 0
-27 -190 0
-21 -198 0
-27 -193 0
-24 -212 0
-20 -211 0
-20 -215 0
-25 -213 0
-23 -213 0
-22 -215 0
-27 -213 0
-23 -212 0
-25 -241 0
-19 -236 0
-22 -241 0
-27 -238 0
-22 -235 0
-21 -239 0
-27 -242 0
-27 -243 0
-26 -249 0
-23 -246 0
-23 -248 0
-21 -251 0
-21 -252 0
-25 -251 0
-26 -248 0
-22 -244 0
-22 -260 0
-19 -256 0
-20 -259 0
-21 -258 0
-20 -255 0
-20 -256 0
-19 -260 0
-21 -255 0
-24 -269 0
-24 -266 0
-19 -262 0
-20 -262 0
-21 -262 0
-25 -263 0
-19 -264 0
-23 -262 0
-32 -49 0
-34 -50 0
-29 -52 0
-28 -48 0
-32 -46 0
-36 -48 0
-33 -48 0
-36 -51 0
-33 -59 0
-36 -62 0
-28 -61 0
-29 -59 0
-36 -57 0
-30 -59 0
-29 -61 0
-35 -62 0
-31 -88 0
-32 -89 0
-30 -82 0
-36 -84 0
-33 -90 0
-35 -85 0
-34 -86 0
-36 -87 0
-29 -134 0
-30 -131 0
-32 -131 0
-33 -131 0
-31 -135 0
-33 -130 0
-30 -128 0
-29 -135 0
-35 -152 0
-31 -151 0
-36 -153 0
-33 -152 0
-28 -145 0
-29 -149 0
-28 -152 0
-34 -149 0
-29 -157 0
-35 -154 0
-36 -155 0
-28 -161 0
-33 -155 0
-30 -155 0
-36 -160 0
-34 -155 0
-28 -164 0
-32 -168 0
-31 -169 0
-35 -163 0
-32 -171 0
-35 -171 0
-29 -164 0
-28 -170 0
-36 -177 0
-29 -174 0
-34 -178 0
-33 -175 0
-32 -174 0
-33 -177 0
-33 -172 0
-32 -179 0
-33 -225 0
-29 -219 0
-33 -223 0
-36 -224 0
-32 -224 0
-33 -222 0
-30 -220 0
-30 -224 0
-34 -230 0
-29 -233 0
-31 -226 0
-32 -232 0
-30 -232 0
-32 -234 0
-28 -232 0
-35 -233 0
-36 -262 0
-30 -265 0
-32 -264 0
-35 -267 0
-29 -263 0
-34 -263 0
-29 -267 0
-31 -267 0
-44 -53 0
-38 -54 0
-37 -46 0
-37 -54 0
-43 -53 0
-37 -48 0
-43 -54 0
-39 -53 0
-45 -81 0
-41 -80 0
-43 -80 0
-40 -77 0
-43 -75 0
-43 -79 0
-37 -73 0
-43 -78 0
-41 -88 0
-40 -85 0
-44 -90 0
-37 -86 0
-45 -90 0
-38 -83 0
-39 -86 0
-45 -83 0
-38 -115 0
-40 -117 0
-37 -110 0
-41 -109 0
-38 -116 0
-43 -111 0
-39 -115 0
-41 -117 0
-43 -123 0
-42 -121 0
-44 -119 0
-43 -122 0
-38 -125 0
-40 -121 0
-44 -123 0
-37 -123 0
-38 -134 0
-37 -131 0
-41 -129 0
-39 -131 0
-37 -127 0
-41 -131 0
-37 -133 0
-43 -133 0
-37 -139 0
-40 -136 0
-41 -143 0
-45 -137 0
-43 -140 0
-38 -139 0
-39 -142 0
-39 -143 0
-43 -156 0
-40 -158 0
-38 -155 0
-39 -161 0
-40 -160 0
-42 -154 0
-45 -162 0
-38 -162 0
-42 -168 0
-37 -164 0
-45 -171 0
-41 -168 0
-43 -167 0
-39 -163 0
-40 -165 0
-45 -166 0
-42 -186 0
-45 -181 0
-39 -185 0
-44 -186 0
-41 -187 0
-43 -185 0
-44 -188 0
-42 -181 0
-42 -207 0
-39 -202 0
-38 -206 0
-44 -206 0
-42 -199 0
-45 -202 0
-44 -202 0
-39 -205 0
-37 -214 0
-38 -213 0
-41 -215 0
-45 -208 0
-42 -213 0
-40 -215 0
-44 -208 0
-41 -213 0
-42 -257 0
-44 -259 0
-38 -256 0
-39 -255 0
-38 -260 0
-37 -256 0
-39 -253 0
-40 -261 0
-40 -264 0
-45 -264 0
-42 -267 0
-39 -264 0
-39 -265 0
-40 -266 0
-42 -268 0
-38 -267 0
-54 -57 0
-49 -56 0
-48 -56 0
-47 -62 0
-46 -58 0
-50 -57 0
-46 -59 0
-46 -62 0
-51 -71 0
-52 -64 0
-53 -64 0
-47 -70 0
-51 -70 0
-53 -68 0
-53 -67 0
-49 -68 0
-47 -102 0
-49 -102 0
-48 -103 0
-51 -103 0
-54 -108 0
-53 -104 0
-50 -106 0
-50 -105 0
-51 -112 0
-54 -110 0
-48 -113 0
-53 -113 0
-52 -110 0
-46 -115 0
-52 -111 0
-49 -115 0
-47 -142 0
-53 -139 0
-54 -136 0
-53 -141 0
-53 -137 0
-47 -137 0
-48 -142 0
-54 -138 0
-48 -145 0
-53 -153 0
-52 -149 0
-54 -152 0
-50 -148 0
-48 -146 0
-53 -150 0
-51 -152 0
-51 -161 0
-51 -155 0
-49 -156 0
-52 -155 0
-54 -158 0
-47 -154 0
-46 -162 0
-48 -159 0
-51 -166 0
-54 -171 0
-46 -165 0
-54 -163 0
-50 -170 0
-48 -168 0
-46 -167 0
-51 -170 0
-53 -172 0
-49 -179 0
-54 -176 0
-53 -174 0
-54 -173 0
-49 -178 0
-53 -179 0
-53 -178 0
-48 -185 0
-54 -186 0
-46 -186 0
-49 -185 0
-48 -183 0
-50 -184 0
-53 -183 0
-54 -189 0
-50 -193 0
-50 -198 0
-49 -194 0
-48 -194 0
-54 -198 0
-46 -190 0
-53 -195 0
-47 -194 0
-47 -215 0
-49 -208 0
-48 -211 0
-47 -208 0
-51 -214 0
-54 -214 0
-49 -213 0
-46 -215 0
-48 -219 0
-47 -222 0
-54 -218 0
-46 -224 0
-51 -220 0
-52 -221 0
-53 -219 0
-53 -225 0
-47 -238 0
-50 -243 0
-49 -237 0
-49 -239 0
-48 -242 0
-49 -236 0
-54 -242 0
-52 -239 0
-50 -246 0
-46 -250 0
-47 -244 0
-51 -250 0
-52 -247 0
-47 -247 0
-52 -244 0
-48 -244 0
-49 -253 0
-47 -253 0
-49 -255 0
-51 -258 0
-50 -253 0
-54 -257 0
-52 -258 0
-53 -254 0
-63 -68 0
-60 -71 0
-57 -69 0
-57 -72 0
-62 -67 0
-62 -64 0
-56 -64 0
-55 -65 0
-57 -95 0
-58 -98 0
-57 -98 0
-58 -93 0
-55 -93 0
-57 -91 0
-57 -99 0
-60 -94 0
-56 -107 0
-56 -100 0
-57 -107 0
-59 -104 0
-57 -103 0
-63 -108 0
-62 -104 0
-60 -104 0
-62 -110 0
-57 -114 0
-56 -117 0
-59 -116 0
-57 -112 0
-63 -111 0
-56 -112 0
-58 -111 0
-61 -118 0
-55 -123 0
-58 -125 0
-59 -125 0
-55 -124 0
-56 -120 0
-57 -121 0
-60 -124 0
-56 -133 0
-56 -130 0
-62 -130 0
-63 -129 0
-62 -128 0
-60 -127 0
-63 -127 0
-61 -130 0
-57 -139 0
-62 -136 0
-57 -136 0
-61 -137 0
-63 -140 0
-63 -142 0
-60 -136 0
-55 -140 0
-60 -150 0
-60 -146 0
-56 -152 0
-59 -153 0
-57 -147 0
-55 -150 0
-61 -150 0
-58 -152 0
-59 -162 0
-57 -157 0
-58 -158 0
-56 -154 0
-63 -156 0
-56 -161 0
-60 -156 0
-60 -160 0
-57 -197 0
-62 -194 0
-58 -194 0
-57 -195 0
-62 -196 0
-58 -193 0
-57 -196 0
-55 -191 0
-57 -209 0
-62 -215 0
-62 -210 0
-63 -209 0
-61 -208 0
-57 -211 0
-60 -209 0
-62 -211 0
-56 -241 0
-57 -243 0
-58 -241 0
-63 -240 0
-55 -240 0
-55 -236 0
-63 -236 0
-59 -238 0
-57 -248 0
-56 -248 0
-60 -245 0
-58 -251 0
-62 -247 0
-63 -246 0
-56 -245 0
-62 -252 0
-55 -255 0
-60 -253 0
-61 -260 0
-57 -260 0
-56 -258 0
-57 -256 0
-55 -254 0
-55 -260 0
-72 -73 0
-64 -77 0
-72 -79 0
-65 -77 0
-67 -81 0
-65 -78 0
-67 -78 0
-70 -74 0
-64 -88 0
-70 -90 0
-68 -83 0
-67 -82 0
-65 -83 0
-71 -84 0
-66 -89 0
-64 -83 0
-70 -108 0
-68 -105 0
-64 -106 0
-67 -106 0
-69 -102 0
-71 -107 0
-68 -101 0
-67 -107 0
-67 -110 0
-68 -116 0
-72 -109 0
-69 -111 0
-72 -113 0
-65 -112 0
-67 -112 0
-71 -111 0
-66 -120 0
-66 -124 0
-66 -118 0
-71 -125 0
-64 -125 0
-67 -122 0
-66 -121 0
-64 -120 0
-70 -135 0
-71 -132 0
-64 -129 0
-64 -130 0
-67 -134 0
-68 -135 0
-70 -128 0
-67 -133 0
-70 -144 0
-72 -141 0
-68 -138 0
-69 -142 0
-72 -139 0
-66 -142 0
-68 -136 0
-68 -144 0
-64 -150 0
-66 -149 0
-65 -145 0
-67 -148 0
-64 -146 0
-66 -153 0
-71 -146 0
-67 -146 0
-72 -211 0
-71 -208 0
-64 -210 0
-70 -212 0
-65 -216 0
-67 -215 0
-66 -214 0
-66 -208 0
-65 -235 0
-70 -243 0
-72 -241 0
-72 -235 0
-70 -237 0
-69 -237 0
-69 -236 0
-72 -239 0
-70 -244 0
-72 -248 0
-69 -247 0
-70 -251 0
-68 -250 0
-72 -251 0
-66 -244 0
-72 -249 0
-66 -254 0
-64 -258 0
-70 -260 0
-70 -254 0
-68 -254 0
-68 -255 0
-70 -253 0
-65 -259 0
-71 -267 0
-70 -265 0
-65 -267 0
-67 -263 0
-69 -263 0
-65 -268 0
-66 -263 0
-64 -270 0
-80 -91 0
-81 -92 0
-81 -97 0
-81 -95 0
-78 -99 0
-78 -91 0
-79 -91 0
-75 -98 0
-76 -117 0
-75 -116 0
-78 -114 0
-79 -115 0
-76 -116 0
-75 -111 0
-75 -117 0
-74 -117 0
-73 -127 0
-73 -132 0
-73 -129 0
-73 -134 0
-79 -129 0
-73 -131 0
-75 -133 0
-81 -128 0
-74 -151 0
-76 -152 0
-73 -150 0
-76 -148 0
-80 -147 0
-73 -145 0
-81 -152 0
-78 -152 0
-73 -189 0
-79 -187 0
-80 -183 0
-81 -186 0
-76 -186 0
-77 -185 0
-75 -182 0
-77 -184 0
-79 -192 0
-78 -190 0
-74 -193 0
-74 -192 0
-76 -198 0
-81 -193 0
-76 -197 0
-75 -195 0
-79 -214 0
-81 -214 0
-75 -215 0
-80 -210 0
-74 -213 0
-81 -216 0
-80 -213 0
-80 -208 0
-78 -231 0
-80 -233 0
-80 -229 0
-75 -232 0
-78 -228 0
-75 -231 0
-77 -234 0
-73 -232 0
-76 -243 0
-75 -237 0
-74 -236 0
-79 -242 0
-79 -241 0
-73 -242 0
-77 -242 0
-80 -236 0
-84 -95 0
-87 -99 0
-86 -97 0
-88 -99 0
-87 -93 0
-85 -94 0
-89 -95 0
-84 -92 0
-89 -125 0
-89 -123 0
-83 -124 0
-84 -120 0
-83 -119 0
-83 -118 0
-88 -125 0
-89 -120 0
-90 -131 0
-83 -134 0
-90 -128 0
-84 -135 0
-87 -133 0
-84 -134 0
-90 -127 0
-84 -133 0
-89 -160 0
-83 -160 0
-84 -154 0
-89 -157 0
-83 -157 0
-84 -159 0
-87 -157 0
-82 -159 0
-84 -169 0
-83 -169 0
-83 -171 0
-90 -171 0
-87 -169 0
-89 -169 0
-87 -164 0
-85 -169 0
-84 -172 0
-90 -175 0
-90 -178 0
-88 -172 0
-89 -172 0
-87 -177 0
-87 -176 0
-86 -176 0
-87 -187 0
-82 -188 0
-90 -187 0
-83 -189 0
-86 -183 0
-88 -184 0
-89 -183 0
-87 -182 0
-84 -234 0
-89 -226 0
-88 -234 0
-89 -228 0
-87 -229 0
-85 -233 0
-85 -229 0
-83 -232 0
-82 -246 0
-88 -248 0
-90 -249 0
-87 -246 0
-83 -246 0
-89 -250 0
-86 -246 0
-88 -252 0
-90 -262 0
-88 -263 0
-89 -270 0
-90 -264 0
-85 -266 0
-84 -263 0
-89 -269 0
-86 -266 0
-94 -103 0
-93 -108 0
-91 -101 0
-93 -101 0
-93 -102 0
-95 -108 0
-92 -106 0
-99 -102 0
-93 -121 0
-91 -122 0
-93 -123 0
-96 -124 0
-97 -123 0
-97 -122 0
-92 -118 0
-94 -119 0
-93 -178 0
-94 -179 0
-96 -178 0
-97 -179 0
-93 -180 0
-91 -174 0
-93 -175 0
-98 -180 0
-93 -195 0
-92 -197 0
-97 -191 0
-96 -191 0
-91 -195 0
-91 -197 0
-91 -198 0
-96 -196 0
-93 -217 0
-94 -218 0
-98 -217 0
-97 -218 0
-94 -222 0
-92 -218 0
-93 -221 0
-99 -223 0
-92 -234 0
-97 -227 0
-97 -234 0
-96 -226 0
-98 -231 0
-97 -229 0
-92 -231 0
-96 -228 0
-98 -236 0
-94 -240 0
-98 -240 0
-92 -242 0
-94 -239 0
-92 -243 0
-96 -240 0
-96 -237 0
-93 -245 0
-94 -250 0
-93 -250 0
-96 -245 0
-98 -251 0
-96 -246 0
-97 -252 0
-99 -246 0
-92 -255 0
-93 -259 0
-97 -261 0
-95 -258 0
-96 -253 0
-99 -256 0
-94 -256 0
-93 -257 0
-108 -113 0
-108 -109 0
-107 -114 0
-102 -112 0
-103 -116 0
-105 -115 0
-107 -110 0
-107 -117 0
-106 -134 0
-100 -129 0
-102 -127 0
-102 -130 0
-102 -132 0
-102 -135 0
-103 -134 0
-100 -135 0
-101 -148 0
-106 -146 0
-101 -146 0
-108 -150 0
-107 -152 0
-100 -152 0
-105 -153 0
-100 -145 0
-102 -168 0
-108 -170 0
-100 -170 0
-105 -164 0
-105 -163 0
-106 -171 0
-101 -166 0
-105 -170 0
-102 -186 0
-107 -182 0
-105 -183 0
-101 -189 0
-104 -184 0
-101 -187 0
-107 -181 0
-103 -188 0
-104 -198 0
-102 -195 0
-104 -191 0
-105 -191 0
-100 -192 0
-103 -192 0
-100 -190 0
-104 -194 0
-100 -201 0
-106 -200 0
-100 -204 0
-105 -205 0
-100 -203 0
-107 -202 0
-105 -199 0
-106 -206 0
-102 -208 0
-100 -211 0
-104 -215 0
-102 -212 0
-107 -215 0
-102 -213 0
-108 -208 0
-100 -216 0
-103 -217 0
-101 -220 0
-105 -219 0
-104 -219 0
-107 -217 0
-107 -224 0
-104 -224 0
-105 -222 0
-107 -249 0
-106 -247 0
-108 -252 0
-101 -250 0
-105 -244 0
-106 -250 0
-105 -246 0
-104 -244 0
-114 -135 0
-110 -131 0
-112 -129 0
-112 -131 0
-115 -127 0
-113 -130 0
-110 -130 0
-111 -128 0
-109 -142 0
-116 -138 0
-114 -143 0
-112 -140 0
-111 -136 0
-110 -137 0
-111 -139 0
-109 -138 0
-110 -145 0
-114 -152 0
-111 -151 0
-111 -152 0
-115 -145 0
-115 -150 0
-111 -150 0
-110 -150 0
-110 -170 0
-116 -169 0
-112 -171 0
-117 -164 0
-109 -166 0
-113 -166 0
-110 -167 0
-115 -169 0
-113 -180 0
-110 -175 0
-113 -178 0
-114 -179 0
-112 -179 0
-111 -173 0
-109 -172 0
-111 -178 0
-114 -194 0
-112 -190 0
-110 -195 0
-117 -190 0
-111 -192 0
-117 -192 0
-115 -197 0
-116 -195 0
-113 -211 0
-114 -208 0
-110 -213 0
-115 -210 0
-109 -209 0
-114 -211 0
-112 -208 0
-109 -212 0
-111 -233 0
-111 -227 0
-113 -227 0
-114 -226 0
-112 -226 0
-115 -229 0
-113 -229 0
-117 -230 0
-118 -157 0
-121 -159 0
-119 -155 0
-121 -161 0
-124 -157 0
-118 -154 0
-123 -154 0
-125 -162 0
-121 -185 0
-120 -188 0
-125 -182 0
-121 -184 0
-125 -189 0
-126 -186 0
-124 -181 0
-118 -188 0
-119 -203 0
-121 -202 0
-121 -205 0
-126 -200 0
-118 -205 0
-119 -205 0
-124 -205 0
-123 -203 0
-121 -220 0
-124 -221 0
-120 -217 0
-123 -225 0
-124 -218 0
-123 -223 0
-125 -223 0
-124 -217 0
-121 -228 0
-119 -230 0
-126 -226 0
-119 -228 0
-123 -230 0
-125 -234 0
-124 -232 0
-121 -232 0
-132 -149 0
-130 -153 0
-127 -149 0
-134 -148 0
-130 -152 0
-131 -147 0
-129 -147 0
-133 -151 0
-133 -156 0
-129 -158 0
-132 -161 0
-135 -155 0
-135 -160 0
-129 -157 0
-134 -154 0
-129 -156 0
-132 -177 0
-135 -178 0
-129 -174 0
-127 -179 0
-131 -173 0
-131 -179 0
-127 -180 0
-128 -179 0
-128 -184 0
-129 -181 0
-133 -181 0
-135 -181 0
-134 -186 0
-127 -187 0
-127 -188 0
-130 -186 0
-131 -206 0
-127 -200 0
-133 -199 0
-134 -205 0
-135 -205 0
-135 -203 0
-130 -203 0
-131 -202 0
-129 -227 0
-134 -227 0
-135 -230 0
-134 -229 0
-128 -234 0
-127 -234 0
-129 -232 0
-132 -230 0
-133 -241 0
-133 -236 0
-127 -242 0
-127 -239 0
-128 -242 0
-131 -236 0
-135 -237 0
-130 -238 0
-130 -248 0
-127 -245 0
-128 -246 0
-128 -250 0
-130 -246 0
-135 -252 0
-133 -245 0
-131 -245 0
-129 -268 0
-129 -262 0
-129 -263 0
-127 -270 0
-135 -263 0
-131 -269 0
-131 -267 0
-128 -264 0
-139 -160 0
-138 -156 0
-139 -159 0
-140 -154 0
-136 -161 0
-137 -161 0
-143 -162 0
-137 -159 0
-142 -166 0
-139 -164 0
-141 -165 0
-136 -166 0
-143 -166 0
-138 -168 0
-139 -170 0
-144 -164 0
-140 -188 0
-144 -188 0
-139 -184 0
-143 -182 0
-136 -183 0
-142 -185 0
-143 -185 0
-139 -186 0
-136 -201 0
-140 -204 0
-142 -202 0
-136 -202 0
-141 -201 0
-142 -206 0
-137 -199 0
-144 -200 0
-140 -243 0
-144 -235 0
-141 -243 0
-136 -239 0
-143 -239 0
-142 -241 0
-141 -241 0
-142 -240 0
-140 -267 0
-137 -270 0
-141 -262 0
-136 -268 0
-143 -264 0
-142 -270 0
-137 -268 0
-144 -264 0
-152 -159 0
-145 -157 0
-152 -162 0
-149 -161 0
-146 -155 0
-145 -162 0
-148 -162 0
-150 -154 0
-152 -174 0
-147 -178 0
-150 -175 0
-153 -173 0
-149 -178 0
-151 -180 0
-146 -180 0
-153 -179 0
-149 -181 0
-150 -183 0
-147 -188 0
-152 -182 0
-147 -184 0
-147 -189 0
-146 -187 0
-150 -186 0
-147 -194 0
-145 -198 0
-148 -192 0
-145 -192 0
-147 -195 0
-153 -193 0
-153 -194 0
-152 -190 0
-151 -201 0
-145 -201 0
-150 -205 0
-151 -204 0
-146 -205 0
-147 -204 0
-148 -199 0
-153 -206 0
-150 -216 0
-153 -214 0
-152 -215 0
-145 -208 0
-146 -216 0
-146 -214 0
-153 -216 0
-149 -216 0
-150 -235 0
-153 -243 0
-150 -237 0
-151 -241 0
-149 -236 0
-152 -235 0
-145 -240 0
-147 -239 0
-149 -245 0
-145 -247 0
-147 -244 0
-153 -246 0
-152 -248 0
-153 -252 0
-149 -246 0
-146 -248 0
-145 -259 0
-149 -259 0
-151 -260 0
-147 -255 0
-150 -253 0
-151 -254 0
-153 -253 0
-151 -255 0
-162 -165 0
-158 -167 0
-161 -166 0
-159 -169 0
-159 -171 0
-160 -166 0
-159 -163 0
-156 -170 0
-157 -199 0
-159 -202 0
-160 -205 0
-158 -205 0
-162 -200 0
-159 -201 0
-157 -202 0
-162 -206 0
-156 -210 0
-161 -214 0
-161 -211 0
-159 -210 0
-154 -212 0
-160 -214 0
-162 -212 0
-155 -213 0
-158 -218 0
-160 -225 0
-161 -224 0
-156 -223 0
-155 -217 0
-161 -219 0
-162 -220 0
-162 -225 0
-166 -176 0
-169 -180 0
-166 -180 0
-163 -178 0
-163 -173 0
-164 -176 0
-170 -172 0
-164 -174 0
-170 -192 0
-167 -197 0
-168 -195 0
-168 -193 0
-167 -191 0
-165 -193 0
-169 -190 0
-166 -190 0
-163 -230 0
-169 -232 0
-165 -232 0
-166 -226 0
-166 -234 0
-167 -228 0
-167 -230 0
-164 -229 0
-164 -235 0
-166 -242 0
-169 -241 0
-164 -242 0
-166 -237 0
-167 -239 0
-167 -242 0
-170 -238 0
-180 -184 0
-174 -188 0
-173 -183 0
-175 -188 0
-174 -187 0
-179 -189 0
-173 -184 0
-175 -189 0
-180 -249 0
-175 -252 0
-177 -252 0
-174 -248 0
-179 -250 0
-175 -250 0
-174 -247 0
-173 -252 0
-179 -265 0
-179 -264 0
-178 -268 0
-178 -262 0
-176 -265 0
-178 -264 0
-178 -270 0
-177 -265 0
-185 -197 0
-188 -195 0
-188 -190 0
-189 -194 0
-189 -192 0
-188 -196 0
-181 -195 0
-185 -194 0
-185 -241 0
-189 -243 0
-182 -236 0
-186 -243 0
-186 -236 0
-181 -240 0
-185 -235 0
-181 -235 0
-198 -200 0
-195 -203 0
-191 -199 0
-193 -199 0
-195 -204 0
-194 -204 0
-193 -205 0
-191 -201 0
-192 -212 0
-193 -210 0
-195 -212 0
-193 -211 0
-197 -213 0
-193 -212 0
-198 -209 0
-196 -212 0
-192 -254 0
-193 -256 0
-196 -258 0
-194 -254 0
-196 -255 0
-193 -258 0
-192 -261 0
-197 -260 0
-193 -266 0
-191 -267 0
-198 -269 0
-194 -264 0
-192 -270 0
-197 -263 0
-197 -268 0
-197 -270 0
-202 -210 0
-206 -208 0
-200 -212 0
-199 -209 0
-201 -213 0
-207 -212 0
-203 -210 0
-206 -209 0
-204 -229 0
-203 -231 0
-200 -230 0
-207 -233 0
-204 -234 0
-199 -234 0
-207 -230 0
-206 -228 0
-204 -263 0
-203 -264 0
-205 -262 0
-202 -265 0
-204 -264 0
-199 -268 0
-206 -270 0
-200 -266 0
-216 -217 0
-212 -219 0
-216 -225 0
-214 -222 0
-216 -224 0
-215 -225 0
-216 -218 0
-212 -217 0
-210 -250 0
-209 -247 0
-215 -245 0
-211 -250 0
-208 -249 0
-213 -245 0
-213 -250 0
-210 -246 0
-210 -258 0
-210 -256 0
-208 -257 0
-212 -254 0
-216 -257 0
-210 -259 0
-209 -255 0
-209 -258 0
-223 -229 0
-218 -228 0
-223 -233 0
-225 -230 0
-219 -226 0
-225 -226 0
-219 -227 0
-220 -226 0
-223 -244 0
-220 -244 0
-219 -247 0
-217 -245 0
-219 -244 0
-223 -251 0
-219 -246 0
-222 -250 0
-219 -268 0
-218 -262 0
-224 -269 0
-223 -265 0
-225 -268 0
-217 -269 0
-219 -264 0
-219 -262 0
-229 -242 0
-226 -243 0
-234 -236 0
-234 -235 0
-232 -240 0
-229 -238 0
-227 -239 0
-227 -238 0
-226 -245 0
-229 -250 0
-234 -250 0
-226 -249 0
-231 -252 0
-230 -245 0
-229 -251 0
-233 -252 0
-229 -254 0
-226 -260 0
-227 -255 0
-230 -255 0
-233 -256 0
-232 -258 0
-229 -259 0
-232 -261 0
-227 -268 0
-234 -267 0
-231 -262 0
-227 -263 0
-227 -269 0
-232 -270 0
-226 -263 0
-226 -262 0
-239 -249 0
-243 -246 0
-240 -248 0
-238 -248 0
-235 -250 0
-237 -246 0
-240 -250 0
-243 -248 0
-241 -260 0
-239 -254 0
-238 -253 0
-243 -254 0
-239 -256 0
-243 -257 0
-242 -258 0
-243 -259 0
-248 -265 0
-250 -265 0
-252 -270 0
-252 -267 0
-246 -264 0
-252 -269 0
-245 -262 0
-245 -270 0
-260 -270 0
-257 -265 0
-255 -269 0
-253 -270 0
-256 -263 0
-255 -265 0
-260 -262 0
-258 -262 0
